<?xml version="1.0" encoding="UTF-8"?><osil xmlns="os.optimizationservices.org" xmlns:xsi="http://www.w3.org/2001/XMLSchema-instance" xsi:schemaLocation="os.optimizationservices.org http://www.optimizationservices.org/schemas/2.0/OSiL.xsd"><instanceHeader><name>cvxnonsep_nsig20</name></instanceHeader><instanceData><variables numberOfVariables="20"><var name="i1" type="I" lb="1" ub="10"/><var name="i2" type="I" lb="1" ub="10"/><var name="i3" type="I" lb="1" ub="10"/><var name="i4" type="I" lb="1" ub="10"/><var name="i5" type="I" lb="1" ub="10"/><var name="i6" type="I" lb="1" ub="10"/><var name="i7" type="I" lb="1" ub="10"/><var name="i8" type="I" lb="1" ub="10"/><var name="i9" type="I" lb="1" ub="10"/><var name="i10" type="I" lb="1" ub="10"/><var name="x11" lb="1e-5" ub="10"/><var name="x12" lb="1e-5" ub="10"/><var name="x13" lb="1e-5" ub="10"/><var name="x14" lb="1e-5" ub="10"/><var name="x15" lb="1e-5" ub="10"/><var name="x16" lb="1e-5" ub="10"/><var name="x17" lb="1e-5" ub="10"/><var name="x18" lb="1e-5" ub="10"/><var name="x19" lb="1e-5" ub="10"/><var name="x20" lb="1e-5" ub="10"/></variables><objectives><obj maxOrMin="min" name="defObj_objvar" numberOfObjCoef="20"><coef idx="0">1.5</coef><coef idx="1">.51</coef><coef idx="2">1.01</coef><coef idx="3">1.4</coef><coef idx="4">1.78</coef><coef idx="5">1.92</coef><coef idx="6">1.09</coef><coef idx="7">.48</coef><coef idx="8">.67</coef><coef idx="9">.52</coef><coef idx="10">1.68</coef><coef idx="11">.51</coef><coef idx="12">1.63</coef><coef idx="13">.49</coef><coef idx="14">1.86</coef><coef idx="15">.7</coef><coef idx="16">.39</coef><coef idx="17">.5</coef><coef idx="18">1.23</coef><coef idx="19">.95</coef></obj></objectives><constraints numberOfConstraints="1"><con name="e2" ub="-1"/></constraints><nonlinearExpressions numberOfNonlinearExpressions="1"><nl idx="0"><product><power><variable idx="0"/><number value="6.5e-2"/></power><number value="-.2"/><power><variable idx="1"/><number value="4e-3"/></power><power><variable idx="2"/><number value="8.4e-2"/></power><power><variable idx="3"/><number value="9.3e-2"/></power><power><variable idx="4"/><number value="6e-2"/></power><power><variable idx="5"/><number value="7.5e-2"/></power><power><variable idx="6"/><number value="7.4e-2"/></power><power><variable idx="7"/><number value="3.9e-2"/></power><power><variable idx="8"/><number value="6.5e-2"/></power><power><variable idx="9"/><number value="1.7e-2"/></power><power><variable idx="10"/><number value="7e-2"/></power><power><variable idx="11"/><number value="3e-2"/></power><power><variable idx="12"/><number value="2.8e-2"/></power><power><variable idx="13"/><number value="5e-3"/></power><power><variable idx="14"/><number value="1e-2"/></power><power><variable idx="15"/><number value="8.2e-2"/></power><power><variable idx="16"/><number value="6.9e-2"/></power><power><variable idx="17"/><number value="3.2e-2"/></power><power><variable idx="18"/><number value="9.5e-2"/></power><power><variable idx="19"/><number value="3e-3"/></power></product></nl></nonlinearExpressions></instanceData></osil>